
n_res = 4;
rcap = [52, 56, 289, 249];
rtype = [1, 1, 2, 2];
n_tasks = 100;
modes =  [{1, 2, 3}, {4, 5, 6}, {7, 8, 9}, {10, 11, 12}, {13, 14, 15}, {16, 17, 18}, {19, 20, 21}, {22, 23, 24}, {25, 26, 27}, {28, 29, 30}, {31, 32, 33}, {34, 35, 36}, {37, 38, 39}, {40, 41, 42}, {43, 44, 45}, {46, 47, 48}, {49, 50, 51}, {52, 53, 54}, {55, 56, 57}, {58, 59, 60}, {61, 62, 63}, {64, 65, 66}, {67, 68, 69}, {70, 71, 72}, {73, 74, 75}, {76, 77, 78}, {79, 80, 81}, {82, 83, 84}, {85, 86, 87}, {88, 89, 90}, {91, 92, 93}, {94, 95, 96}, {97, 98, 99}, {100, 101, 102}, {103, 104, 105}, {106, 107, 108}, {109, 110, 111}, {112, 113, 114}, {115, 116, 117}, {118, 119, 120}, {121, 122, 123}, {124, 125, 126}, {127, 128, 129}, {130, 131, 132}, {133, 134, 135}, {136, 137, 138}, {139, 140, 141}, {142, 143, 144}, {145, 146, 147}, {148, 149, 150}, {151, 152, 153}, {154, 155, 156}, {157, 158, 159}, {160, 161, 162}, {163, 164, 165}, {166, 167, 168}, {169, 170, 171}, {172, 173, 174}, {175, 176, 177}, {178, 179, 180}, {181, 182, 183}, {184, 185, 186}, {187, 188, 189}, {190, 191, 192}, {193, 194, 195}, {196, 197, 198}, {199, 200, 201}, {202, 203, 204}, {205, 206, 207}, {208, 209, 210}, {211, 212, 213}, {214, 215, 216}, {217, 218, 219}, {220, 221, 222}, {223, 224, 225}, {226, 227, 228}, {229, 230, 231}, {232, 233, 234}, {235, 236, 237}, {238, 239, 240}, {241, 242, 243}, {244, 245, 246}, {247, 248, 249}, {250, 251, 252}, {253, 254, 255}, {256, 257, 258}, {259, 260, 261}, {262, 263, 264}, {265, 266, 267}, {268, 269, 270}, {271, 272, 273}, {274, 275, 276}, {277, 278, 279}, {280, 281, 282}, {283, 284, 285}, {286, 287, 288}, {289, 290, 291}, {292, 293, 294}, {295, 296, 297}, {298, 299, 300}];
succ =  [{96, 94, 89, 71, 69, 59, 55, 53, 49, 44, 43, 39, 34, 33, 32, 25}, {100, 96, 94, 68, 57, 56, 55, 54, 50, 47, 46, 41, 17}, {100, 98, 96, 95, 71, 70, 69, 63, 62, 59, 58, 57, 51, 50, 49, 37, 25}, {100, 95, 82, 71, 70, 63, 59, 55, 49, 47, 39, 31, 29}, {99, 97, 96, 95, 93, 92, 91, 90, 88, 87, 81, 71, 70, 69, 68, 67, 62, 60, 59, 57, 56, 54, 53, 51, 47, 38}, {99, 95, 92, 91, 90, 88, 87, 71, 65, 62, 61, 60, 59, 57, 56, 53, 51, 44, 42, 40, 38}, {100, 99, 96, 95, 69, 63, 60, 59, 57, 56, 55, 53, 51, 49, 25}, {97, 96, 95, 94, 85, 69, 63, 62, 56, 54, 50, 49, 25}, {98, 97, 95, 93, 91, 88, 87, 86, 81, 71, 67, 64, 62, 60, 58, 56, 55, 54, 53, 52, 51, 38}, {96, 95, 85, 68, 61, 59, 49, 48, 38, 29}, {95, 93, 91, 89, 88, 82, 71, 70, 68, 67, 58, 52, 48, 31}, {99, 98, 97, 95, 92, 91, 90, 89, 88, 86, 85, 69, 68, 60, 59, 57, 51, 45, 38}, {93, 90, 89, 81, 65, 62, 58, 57, 53, 51, 50, 44, 39}, {100, 99, 98, 94, 90, 88, 86, 71, 70, 67, 62, 48, 31}, {99, 90, 89, 88, 87, 85, 83, 82, 76, 70, 69, 67, 63, 57, 51, 49, 47}, {99, 94, 89, 88, 86, 85, 81, 71, 70, 64, 59, 58, 54, 50, 49, 38}, {90, 89, 88, 83, 82, 77, 71, 69, 61, 60, 58, 53, 51, 49, 40}, {91, 89, 87, 81, 70, 69, 60, 59, 57, 53, 51, 47, 44, 38}, {96, 90, 87, 83, 70, 57, 51, 47, 44, 41}, {98, 94, 93, 92, 91, 90, 89, 88, 86, 81, 78, 70, 69, 67, 57, 38}, {98, 97, 92, 90, 88, 87, 86, 69, 63, 57, 53, 51, 44}, {97, 91, 90, 88, 81, 67, 62, 56, 51, 38}, {93, 92, 91, 88, 87, 85, 83, 82, 81, 78, 77, 75, 73, 71, 68, 59, 57}, {99, 98, 96, 95, 86, 84, 83, 82, 76, 73, 70, 67, 66, 63, 51}, {92, 90, 88, 87, 86, 78, 68, 67, 64, 38}, {96, 94, 91, 89, 86, 84, 82, 80, 78, 77, 76, 75, 73, 68, 67, 59, 57}, {94, 91, 89, 88, 86, 85, 84, 77, 71, 57, 54, 51}, {95, 89, 68, 57, 51, 44}, {97, 94, 93, 90, 89, 86, 81, 78, 77, 67, 60, 54, 53}, {96, 87, 86, 85, 83, 79, 77, 73, 66, 59, 55, 51}, {92, 85, 84, 83, 77, 76, 73, 69, 61, 57, 51}, {97, 82, 81, 79, 77, 76, 67, 65, 61, 54, 51}, {92, 88, 85, 84, 83, 82, 80, 78, 77, 76, 75, 65, 54}, {88, 86, 85, 83, 82, 81, 77, 75, 74, 60, 57, 50}, {96, 89, 81, 76, 74, 70, 60, 55, 50}, {95, 85, 83, 81, 79, 78, 77, 73, 68, 59, 55}, {99, 93, 88, 87, 85, 81, 78, 77, 61, 60, 54}, {84, 83, 82, 80, 79, 77, 76, 75, 73, 66}, {98, 91, 88, 87, 83, 77, 76, 75, 73, 68}, {86, 85, 81, 79, 78, 76, 73, 67, 66}, {97, 91, 89, 85, 82, 77, 75, 73, 59}, {96, 94, 84, 83, 81, 80, 76, 74, 73, 72}, {95, 92, 90, 86, 80, 78, 76, 72, 67}, {85, 84, 82, 79, 76, 73, 67, 66}, {94, 87, 82, 77, 75, 73, 66}, {85, 81, 80, 75, 70, 66}, {86, 84, 80, 78, 73, 72}, {87, 81, 75, 74, 73, 72}, {93, 92, 91, 74, 72}, {87, 79, 73, 66}, {80, 78, 75, 72}, {94, 75, 74, 73}, {76, 73, 66}, {74, 73, 72}, {90, 75, 72}, {89, 73, 72}, {79, 66}, {74, 66}, {74, 72}, {73, 72}, {74, 72}, {77, 72}, {81, 77}, {76, 73}, {66}, {72}, {74}, {72}, {72}, {72}, {76}, {}, {}, {}, {}, {}, {}, {}, {}, {}, {}, {}, {}, {}, {}, {}, {}, {}, {}, {}, {}, {}, {}, {}, {}, {}, {}, {}, {}, {}];
n_opt = 300;
dur = [5, 7, 9, 1, 4, 5, 1, 5, 10, 5, 5, 9, 1, 2, 8, 5, 8, 9, 2, 5, 6, 3, 3, 8, 1, 3, 7, 2, 3, 4, 1, 8, 10, 3, 3, 6, 1, 6, 10, 5, 6, 7, 3, 7, 9, 1, 1, 4, 1, 2, 6, 3, 8, 10, 5, 6, 10, 6, 6, 7, 1, 3, 5, 3, 4, 8, 5, 9, 9, 1, 8, 8, 9, 9, 10, 4, 5, 7, 1, 3, 10, 2, 3, 9, 1, 6, 7, 4, 8, 10, 3, 4, 9, 6, 9, 10, 2, 2, 7, 2, 2, 8, 2, 5, 7, 2, 3, 5, 1, 4, 8, 2, 3, 8, 5, 7, 10, 5, 8, 9, 2, 6, 10, 1, 5, 8, 1, 2, 5, 7, 8, 9, 4, 9, 10, 1, 1, 9, 3, 4, 10, 1, 1, 8, 4, 5, 8, 1, 2, 10, 6, 8, 9, 3, 5, 9, 3, 4, 5, 3, 4, 7, 2, 7, 10, 4, 8, 8, 1, 4, 7, 3, 5, 5, 5, 6, 8, 8, 9, 10, 1, 2, 5, 2, 4, 10, 2, 6, 8, 5, 7, 8, 3, 7, 8, 6, 6, 10, 2, 3, 7, 6, 8, 10, 2, 9, 10, 4, 8, 9, 2, 6, 6, 5, 7, 10, 2, 5, 9, 2, 4, 10, 6, 9, 10, 7, 8, 10, 2, 6, 10, 2, 5, 10, 1, 9, 10, 4, 9, 10, 1, 7, 10, 1, 2, 7, 3, 6, 10, 1, 4, 6, 3, 4, 10, 1, 5, 10, 1, 4, 9, 3, 4, 5, 2, 4, 7, 3, 9, 10, 1, 3, 9, 4, 6, 10, 6, 8, 9, 2, 2, 6, 5, 5, 8, 2, 8, 9, 3, 5, 10, 2, 5, 6, 7, 8, 9, 4, 10, 10];
rreq = [|5, 5, 1, 7, 7, 7, 9, 9, 9, 6, 5, 3, 3, 2, 2, 4, 4, 2, 7, 7, 7, 7, 3, 3, 3, 1, 1, 7, 3, 3, 4, 4, 4, 6, 4, 3, 7, 5, 5, 2, 2, 2, 9, 6, 4, 8, 4, 2, 3, 2, 2, 7, 7, 7, 5, 3, 3, 3, 2, 2, 9, 8, 7, 6, 4, 3, 10, 10, 10, 2, 1, 1, 8, 7, 6, 7, 5, 1, 10, 10, 10, 8, 5, 2, 6, 6, 6, 5, 4, 3, 9, 7, 4, 9, 9, 9, 7, 7, 7, 8, 8, 8, 3, 3, 3, 9, 8, 7, 5, 5, 3, 10, 9, 9, 7, 6, 6, 5, 4, 3, 10, 10, 10, 6, 5, 4, 7, 6, 6, 5, 4, 3, 7, 6, 4, 3, 2, 2, 10, 6, 6, 8, 6, 6, 3, 3, 2, 7, 6, 5, 5, 3, 2, 9, 9, 8, 6, 6, 4, 4, 3, 1, 5, 4, 4, 4, 3, 3, 8, 7, 7, 8, 7, 7, 9, 5, 3, 7, 7, 6, 8, 6, 6, 5, 5, 5, 6, 5, 4, 10, 10, 10, 8, 6, 5, 8, 5, 3, 8, 7, 7, 5, 5, 4, 10, 8, 7, 8, 8, 7, 8, 8, 6, 8, 7, 6, 6, 5, 4, 4, 2, 2, 4, 4, 2, 5, 4, 1, 4, 2, 2, 9, 6, 2, 5, 4, 4, 10, 8, 8, 4, 4, 4, 4, 4, 4, 5, 4, 3, 9, 9, 9, 9, 7, 5, 6, 3, 2, 2, 1, 1, 8, 7, 7, 2, 1, 1, 7, 7, 7, 4, 3, 3, 8, 7, 7, 9, 8, 8, 10, 9, 9, 10, 10, 10, 8, 8, 8, 5, 4, 1, 8, 6, 6, 6, 5, 4, 9, 8, 8
 |10, 8, 7, 8, 4, 4, 7, 6, 5, 5, 5, 5, 2, 2, 2, 9, 8, 6, 3, 1, 1, 8, 6, 3, 10, 9, 8, 6, 4, 2, 7, 7, 7, 5, 2, 1, 2, 2, 2, 7, 6, 6, 7, 7, 7, 6, 5, 4, 6, 6, 6, 9, 9, 7, 10, 8, 5, 6, 5, 4, 8, 5, 2, 6, 6, 4, 10, 9, 9, 6, 4, 2, 3, 3, 2, 10, 8, 7, 9, 6, 6, 4, 3, 3, 3, 3, 3, 5, 2, 2, 9, 7, 4, 8, 5, 4, 9, 8, 6, 10, 10, 10, 7, 6, 5, 2, 1, 1, 9, 8, 6, 8, 8, 8, 3, 3, 2, 4, 4, 4, 5, 4, 3, 8, 7, 7, 5, 4, 2, 10, 8, 5, 6, 4, 2, 6, 6, 6, 8, 8, 8, 5, 4, 3, 10, 6, 4, 9, 9, 9, 5, 2, 2, 7, 5, 4, 9, 6, 6, 3, 3, 2, 8, 8, 6, 5, 5, 5, 7, 6, 3, 1, 1, 1, 9, 7, 7, 5, 5, 2, 3, 2, 2, 5, 4, 4, 9, 5, 5, 8, 6, 5, 9, 6, 2, 6, 5, 5, 5, 4, 2, 7, 6, 2, 8, 8, 4, 4, 3, 3, 5, 3, 1, 10, 8, 7, 5, 3, 3, 3, 3, 3, 4, 4, 4, 5, 5, 4, 6, 4, 3, 4, 4, 4, 3, 3, 2, 8, 6, 6, 9, 6, 5, 8, 8, 7, 9, 7, 7, 9, 9, 9, 7, 6, 2, 8, 7, 5, 6, 5, 4, 8, 7, 5, 3, 1, 1, 5, 4, 4, 7, 5, 4, 6, 6, 4, 3, 3, 3, 9, 9, 9, 9, 9, 9, 6, 4, 1, 8, 5, 5, 4, 4, 4, 9, 8, 8, 8, 5, 5
 |8, 0, 6, 0, 0, 0, 7, 6, 3, 7, 0, 0, 7, 0, 0, 0, 0, 0, 0, 10, 9, 5, 0, 1, 7, 5, 0, 0, 0, 2, 0, 8, 7, 2, 0, 0, 10, 0, 3, 0, 4, 0, 7, 6, 0, 5, 0, 0, 10, 0, 0, 8, 0, 0, 5, 5, 4, 6, 0, 6, 2, 0, 2, 3, 2, 2, 0, 1, 0, 0, 3, 0, 6, 0, 0, 6, 5, 0, 0, 0, 8, 0, 0, 0, 4, 3, 2, 0, 0, 0, 0, 7, 5, 5, 4, 4, 0, 1, 0, 0, 6, 0, 9, 0, 9, 0, 0, 6, 10, 9, 8, 0, 6, 5, 0, 9, 9, 0, 7, 4, 0, 0, 1, 7, 0, 0, 0, 0, 0, 8, 0, 0, 7, 6, 0, 0, 10, 0, 6, 0, 4, 0, 1, 1, 7, 7, 6, 0, 3, 0, 8, 6, 0, 9, 0, 0, 0, 2, 1, 4, 3, 2, 9, 0, 0, 1, 0, 1, 8, 0, 8, 6, 0, 3, 0, 0, 3, 0, 7, 7, 0, 6, 5, 4, 3, 2, 4, 0, 0, 0, 6, 5, 6, 2, 0, 8, 0, 7, 0, 8, 8, 0, 0, 0, 6, 5, 4, 0, 0, 2, 0, 0, 1, 8, 6, 0, 5, 0, 0, 0, 0, 0, 6, 5, 0, 9, 7, 0, 0, 0, 7, 0, 7, 0, 0, 7, 6, 0, 6, 0, 0, 0, 0, 0, 0, 0, 5, 4, 0, 0, 0, 0, 10, 8, 8, 6, 5, 0, 0, 0, 0, 0, 3, 2, 5, 5, 2, 0, 5, 4, 7, 5, 5, 0, 0, 0, 8, 0, 4, 9, 0, 9, 0, 5, 2, 0, 0, 0, 8, 8, 0, 8, 0, 8, 8, 5, 3, 5, 0, 4
 |0, 1, 0, 8, 7, 2, 0, 0, 0, 0, 7, 7, 0, 6, 5, 6, 4, 1, 4, 0, 0, 0, 4, 0, 0, 0, 1, 7, 5, 0, 3, 0, 0, 0, 2, 2, 0, 6, 0, 5, 0, 3, 0, 0, 2, 0, 8, 7, 0, 7, 5, 0, 2, 2, 0, 0, 0, 0, 8, 0, 0, 6, 0, 0, 0, 0, 7, 0, 1, 6, 0, 5, 0, 5, 3, 0, 0, 1, 6, 4, 0, 8, 5, 5, 0, 0, 0, 6, 4, 1, 2, 0, 0, 0, 0, 0, 5, 0, 2, 3, 0, 2, 0, 9, 0, 5, 4, 0, 0, 0, 0, 9, 0, 0, 6, 0, 0, 8, 0, 0, 5, 5, 0, 0, 7, 7, 5, 3, 3, 0, 7, 7, 0, 0, 1, 3, 0, 1, 0, 1, 0, 8, 0, 0, 0, 0, 0, 3, 0, 3, 0, 0, 1, 0, 3, 3, 6, 0, 0, 0, 0, 0, 0, 5, 4, 0, 2, 0, 0, 6, 0, 0, 3, 0, 7, 6, 0, 6, 0, 0, 6, 0, 0, 0, 0, 0, 0, 9, 9, 9, 0, 0, 0, 0, 4, 0, 6, 0, 9, 0, 0, 8, 6, 6, 0, 0, 0, 7, 6, 0, 7, 7, 0, 0, 0, 4, 0, 2, 2, 5, 5, 4, 0, 0, 7, 0, 0, 3, 5, 5, 0, 9, 0, 8, 3, 0, 0, 4, 0, 2, 6, 5, 3, 8, 4, 3, 0, 0, 3, 6, 5, 4, 0, 0, 0, 0, 0, 7, 8, 5, 4, 8, 0, 0, 0, 0, 0, 3, 0, 0, 0, 0, 0, 6, 6, 6, 0, 6, 0, 0, 3, 0, 5, 0, 0, 7, 7, 7, 0, 0, 1, 0, 3, 0, 0, 0, 0, 0, 2, 0|];